p cnf 412 698
-46 -65 -31 76 0
-46 -65 -31 -76 0
-21 -12 52 77 0
-21 -12 52 -77 0
31 56 -8 78 0
31 56 -8 -78 0
-57 -47 75 79 0
-57 -47 75 -79 0
39 55 -12 80 0
39 55 -12 -80 0
-30 -68 39 81 0
-30 -68 39 -81 0
53 67 -21 82 0
53 67 -21 -82 0
-52 61 -43 83 0
-52 61 -43 -83 0
36 -66 -18 84 0
36 -66 -18 -84 0
-37 -30 -43 85 0
-37 -30 -43 -85 0
-22 -12 56 86 0
-22 -12 56 -86 0
69 50 -20 87 0
69 50 -20 -87 0
-1 -56 -35 88 0
-1 -56 -35 -88 0
15 1 36 89 0
15 1 36 -89 0
-20 -72 -56 90 0
-20 -72 -56 -90 0
-50 -67 -31 91 0
-50 -67 -31 -91 0
-45 21 -3 92 0
-45 21 -3 -92 0
59 -5 -11 93 0
59 -5 -11 -93 0
-41 45 -15 94 0
-41 45 -15 -94 0
17 -2 -21 95 0
17 -2 -21 -95 0
53 38 34 96 0
53 38 34 -96 0
-67 -58 -25 97 0
-67 -58 -25 -97 0
-45 -25 54 98 0
-45 -25 54 -98 0
-35 18 -67 99 0
-35 18 -67 -99 0
15 32 -73 100 0
15 32 -73 -100 0
-20 13 6 101 0
-20 13 6 -101 0
57 12 -1 102 0
57 12 -1 -102 0
56 50 -66 103 0
56 50 -66 -103 0
-57 -64 -60 104 0
-57 -64 -60 -104 0
-45 54 -32 105 0
-45 54 -32 -105 0
10 33 3 106 0
10 33 3 -106 0
34 -68 -35 107 0
34 -68 -35 -107 0
-1 55 -14 108 0
-1 55 -14 -108 0
34 -70 -32 109 0
34 -70 -32 -109 0
-18 -12 -49 110 0
-18 -12 -49 -110 0
-40 63 21 111 0
-40 63 21 -111 0
65 -36 24 112 0
65 -36 24 -112 0
63 -70 2 113 0
63 -70 2 -113 0
45 -21 -11 114 0
45 -21 -11 -114 0
-72 56 -66 115 0
-72 56 -66 -115 0
-33 69 31 116 0
-33 69 31 -116 0
9 -25 -69 117 0
9 -25 -69 -117 0
-54 36 -58 118 0
-54 36 -58 -118 0
72 6 65 119 0
72 6 65 -119 0
-61 -3 -9 120 0
-61 -3 -9 -120 0
-19 -5 -32 121 0
-19 -5 -32 -121 0
8 66 -16 122 0
8 66 -16 -122 0
-64 -75 -24 123 0
-64 -75 -24 -123 0
16 -52 -65 124 0
16 -52 -65 -124 0
-32 43 -74 125 0
-32 43 -74 -125 0
3 37 50 126 0
3 37 50 -126 0
-26 19 -22 127 0
-26 19 -22 -127 0
-30 -9 44 128 0
-30 -9 44 -128 0
38 -70 -75 129 0
38 -70 -75 -129 0
24 -31 -26 130 0
24 -31 -26 -130 0
-68 74 7 131 0
-68 74 7 -131 0
75 59 -37 132 0
75 59 -37 -132 0
65 -55 -33 133 0
65 -55 -33 -133 0
71 -40 -56 134 0
71 -40 -56 -134 0
-46 -70 65 135 0
-46 -70 65 -135 0
60 64 -40 136 0
60 64 -40 -136 0
-27 6 -19 137 0
-27 6 -19 -137 0
-37 -11 65 138 0
-37 -11 65 -138 0
51 -39 74 139 0
51 -39 74 -139 0
-70 32 31 140 0
-70 32 31 -140 0
18 10 -58 141 0
18 10 -58 -141 0
64 -36 -58 142 0
64 -36 -58 -142 0
-73 -2 47 143 0
-73 -2 47 -143 0
-43 -8 -4 144 0
-43 -8 -4 -144 0
-69 -26 71 145 0
-69 -26 71 -145 0
-71 59 -26 146 0
-71 59 -26 -146 0
-17 9 -74 147 0
-17 9 -74 -147 0
42 -9 28 148 0
42 -9 28 -148 0
-1 -61 38 149 0
-1 -61 38 -149 0
-68 -5 73 150 0
-68 -5 73 -150 0
41 -38 39 151 0
41 -38 39 -151 0
35 67 -36 152 0
35 67 -36 -152 0
-15 2 52 153 0
-15 2 52 -153 0
-2 36 -16 154 0
-2 36 -16 -154 0
-41 -27 -75 155 0
-41 -27 -75 -155 0
53 -38 18 156 0
53 -38 18 -156 0
-36 -16 67 157 0
-36 -16 67 -157 0
40 65 -30 158 0
40 65 -30 -158 0
-47 -35 -25 159 0
-47 -35 -25 -159 0
-58 39 11 160 0
-58 39 11 -160 0
-37 -55 46 161 0
-37 -55 46 -161 0
-54 32 43 162 0
-54 32 43 -162 0
74 69 -7 163 0
74 69 -7 -163 0
-17 -56 -74 164 0
-17 -56 -74 -164 0
25 26 35 165 0
25 26 35 -165 0
43 44 17 166 0
43 44 17 -166 0
41 -2 -44 167 0
41 -2 -44 -167 0
26 -46 -66 168 0
26 -46 -66 -168 0
-72 -15 56 169 0
-72 -15 56 -169 0
67 -6 -49 170 0
67 -6 -49 -170 0
63 9 -26 171 0
63 9 -26 -171 0
-16 -62 50 172 0
-16 -62 50 -172 0
-56 -20 -68 173 0
-56 -20 -68 -173 0
46 -49 -6 174 0
46 -49 -6 -174 0
50 -35 67 175 0
50 -35 67 -175 0
6 -49 -40 176 0
6 -49 -40 -176 0
-4 -68 -48 177 0
-4 -68 -48 -177 0
-75 33 61 178 0
-75 33 61 -178 0
-57 -49 -11 179 0
-57 -49 -11 -179 0
-48 -50 -14 180 0
-48 -50 -14 -180 0
70 5 48 181 0
70 5 48 -181 0
-20 39 -17 182 0
-20 39 -17 -182 0
34 16 25 183 0
34 16 25 -183 0
-57 -64 2 184 0
-57 -64 2 -184 0
-47 -23 -51 185 0
-47 -23 -51 -185 0
59 56 54 186 0
59 56 54 -186 0
-56 35 -53 187 0
-56 35 -53 -187 0
65 61 10 188 0
65 61 10 -188 0
-42 -63 -5 189 0
-42 -63 -5 -189 0
44 26 -2 190 0
44 26 -2 -190 0
70 -44 -49 191 0
70 -44 -49 -191 0
6 -18 40 192 0
6 -18 40 -192 0
67 30 -43 193 0
67 30 -43 -193 0
47 22 -64 194 0
47 22 -64 -194 0
58 27 46 195 0
58 27 46 -195 0
-72 -32 -1 196 0
-72 -32 -1 -196 0
-33 -63 -1 197 0
-33 -63 -1 -197 0
-31 -56 75 198 0
-31 -56 75 -198 0
-58 -33 -56 199 0
-58 -33 -56 -199 0
-14 30 -8 200 0
-14 30 -8 -200 0
17 -29 -1 201 0
17 -29 -1 -201 0
2 31 45 202 0
2 31 45 -202 0
-47 -58 15 203 0
-47 -58 15 -203 0
-5 38 34 204 0
-5 38 34 -204 0
-41 23 -36 205 0
-41 23 -36 -205 0
19 -24 22 206 0
19 -24 22 -206 0
-2 -42 51 207 0
-2 -42 51 -207 0
5 -17 -60 208 0
5 -17 -60 -208 0
-20 -67 4 209 0
-20 -67 4 -209 0
60 -18 -35 210 0
60 -18 -35 -210 0
12 10 64 211 0
12 10 64 -211 0
53 30 -72 212 0
53 30 -72 -212 0
31 6 -57 213 0
31 6 -57 -213 0
-56 45 36 214 0
-56 45 36 -214 0
72 8 30 215 0
72 8 30 -215 0
-72 -39 -30 216 0
-72 -39 -30 -216 0
15 50 12 217 0
15 50 12 -217 0
52 -33 -18 218 0
52 -33 -18 -218 0
2 29 13 219 0
2 29 13 -219 0
49 -9 -43 220 0
49 -9 -43 -220 0
-23 36 33 221 0
-23 36 33 -221 0
-35 3 -46 222 0
-35 3 -46 -222 0
-22 37 -2 223 0
-22 37 -2 -223 0
56 -37 57 224 0
56 -37 57 -224 0
-66 58 -59 225 0
-66 58 -59 -225 0
-16 58 -10 226 0
-16 58 -10 -226 0
-27 38 -41 227 0
-27 38 -41 -227 0
-56 30 7 228 0
-56 30 7 -228 0
27 65 52 229 0
27 65 52 -229 0
24 -72 9 230 0
24 -72 9 -230 0
-60 -5 13 231 0
-60 -5 13 -231 0
-33 24 -53 232 0
-33 24 -53 -232 0
-43 -2 16 233 0
-43 -2 16 -233 0
-64 11 14 234 0
-64 11 14 -234 0
67 -43 16 235 0
67 -43 16 -235 0
-32 35 11 236 0
-32 35 11 -236 0
60 -61 -32 237 0
60 -61 -32 -237 0
-24 -27 -54 238 0
-24 -27 -54 -238 0
63 64 -50 239 0
63 64 -50 -239 0
21 22 36 240 0
21 22 36 -240 0
-43 54 -46 241 0
-43 54 -46 -241 0
60 -7 -61 242 0
60 -7 -61 -242 0
68 -70 47 243 0
68 -70 47 -243 0
20 59 -60 244 0
20 59 -60 -244 0
42 -35 13 245 0
42 -35 13 -245 0
46 -36 -69 246 0
46 -36 -69 -246 0
8 65 54 247 0
8 65 54 -247 0
-17 -27 18 248 0
-17 -27 18 -248 0
-74 3 71 249 0
-74 3 71 -249 0
-35 -65 44 250 0
-35 -65 44 -250 0
-70 -38 -61 251 0
-70 -38 -61 -251 0
56 68 -34 252 0
56 68 -34 -252 0
-57 33 20 253 0
-57 33 20 -253 0
11 19 6 254 0
11 19 6 -254 0
-15 36 19 255 0
-15 36 19 -255 0
-9 -2 49 256 0
-9 -2 49 -256 0
-39 45 -28 257 0
-39 45 -28 -257 0
65 -61 2 258 0
65 -61 2 -258 0
13 -69 -42 259 0
13 -69 -42 -259 0
-47 -15 3 260 0
-47 -15 3 -260 0
-2 7 -11 261 0
-2 7 -11 -261 0
10 41 -44 262 0
10 41 -44 -262 0
6 27 33 263 0
6 27 33 -263 0
-30 -49 11 264 0
-30 -49 11 -264 0
38 25 -41 265 0
38 25 -41 -265 0
29 -60 4 266 0
29 -60 4 -266 0
71 28 -51 267 0
71 28 -51 -267 0
60 -34 63 268 0
60 -34 63 -268 0
-69 -60 -13 269 0
-69 -60 -13 -269 0
-23 -20 -17 270 0
-23 -20 -17 -270 0
4 71 51 271 0
4 71 51 -271 0
-22 -63 -72 272 0
-22 -63 -72 -272 0
-39 -22 -40 273 0
-39 -22 -40 -273 0
53 -57 -70 274 0
53 -57 -70 -274 0
60 71 -61 275 0
60 71 -61 -275 0
-39 -33 -28 276 0
-39 -33 -28 -276 0
-68 -5 -50 277 0
-68 -5 -50 -277 0
42 22 -61 278 0
42 22 -61 -278 0
-63 58 39 279 0
-63 58 39 -279 0
27 -4 -12 280 0
27 -4 -12 -280 0
64 -2 -7 281 0
64 -2 -7 -281 0
-3 41 -69 282 0
-3 41 -69 -282 0
17 71 73 283 0
17 71 73 -283 0
59 -65 60 284 0
59 -65 60 -284 0
-39 74 -7 285 0
-39 74 -7 -285 0
24 74 47 286 0
24 74 47 -286 0
19 -18 60 287 0
19 -18 60 -287 0
-64 12 10 288 0
-64 12 10 -288 0
-64 72 -1 289 0
-64 72 -1 -289 0
-52 59 -46 290 0
-52 59 -46 -290 0
-28 57 -56 291 0
-28 57 -56 -291 0
18 -30 13 292 0
18 -30 13 -292 0
16 31 19 293 0
16 31 19 -293 0
37 -5 -28 294 0
37 -5 -28 -294 0
-10 29 -31 295 0
-10 29 -31 -295 0
37 -39 -45 296 0
37 -39 -45 -296 0
13 -56 -11 297 0
13 -56 -11 -297 0
-32 74 9 298 0
-32 74 9 -298 0
7 60 30 299 0
7 60 30 -299 0
-8 32 -35 300 0
-8 32 -35 -300 0
-27 -50 -10 301 0
-27 -50 -10 -301 0
-52 4 29 302 0
-52 4 29 -302 0
-41 61 10 303 0
-41 61 10 -303 0
74 43 -19 304 0
74 43 -19 -304 0
-34 -9 73 305 0
-34 -9 73 -305 0
-39 -73 -59 306 0
-39 -73 -59 -306 0
-20 46 55 307 0
-20 46 55 -307 0
-60 -74 69 308 0
-60 -74 69 -308 0
-28 -46 -71 309 0
-28 -46 -71 -309 0
12 33 -7 310 0
12 33 -7 -310 0
19 64 -50 311 0
19 64 -50 -311 0
54 57 -14 312 0
54 57 -14 -312 0
41 14 45 313 0
41 14 45 -313 0
63 -36 -59 314 0
63 -36 -59 -314 0
20 -19 -62 315 0
20 -19 -62 -315 0
-48 -34 -14 316 0
-48 -34 -14 -316 0
-28 52 -70 317 0
-28 52 -70 -317 0
-26 20 11 318 0
-26 20 11 -318 0
47 -64 15 319 0
47 -64 15 -319 0
-11 -15 -20 320 0
-11 -15 -20 -320 0
-36 -16 22 321 0
-36 -16 22 -321 0
31 18 -68 322 0
31 18 -68 -322 0
66 29 -18 323 0
66 29 -18 -323 0
-28 60 34 324 0
-28 60 34 -324 0
44 25 -63 325 0
44 25 -63 -325 0
57 27 74 326 0
57 27 74 -326 0
62 -35 8 327 0
62 -35 8 -327 0
2 67 -24 328 0
2 67 -24 -328 0
-31 65 -28 329 0
-31 65 -28 -329 0
42 -28 -27 330 0
42 -28 -27 -330 0
6 -31 65 331 0
6 -31 65 -331 0
19 -48 42 332 0
19 -48 42 -332 0
-32 -61 71 333 0
-32 -61 71 -333 0
50 18 -66 334 0
50 18 -66 -334 0
60 57 -22 335 0
60 57 -22 -335 0
-49 17 25 336 0
-49 17 25 -336 0
45 -40 -59 337 0
45 -40 -59 -337 0
16 22 27 338 0
16 22 27 -338 0
13 -51 -32 339 0
13 -51 -32 -339 0
71 -38 -30 340 0
71 -38 -30 -340 0
12 -22 58 341 0
12 -22 58 -341 0
48 -30 43 342 0
48 -30 43 -342 0
72 -57 -54 343 0
72 -57 -54 -343 0
-38 5 32 344 0
-38 5 32 -344 0
-43 3 47 345 0
-43 3 47 -345 0
38 -31 40 346 0
38 -31 40 -346 0
-23 -39 54 347 0
-23 -39 54 -347 0
23 67 -1 348 0
23 67 -1 -348 0
57 -52 73 349 0
57 -52 73 -349 0
-22 14 7 350 0
-22 14 7 -350 0
-12 -48 -56 351 0
-12 -48 -56 -351 0
-2 15 12 352 0
-2 15 12 -352 0
-75 27 72 353 0
-75 27 72 -353 0
-68 10 63 354 0
-68 10 63 -354 0
71 44 -48 355 0
71 44 -48 -355 0
28 49 30 356 0
28 49 30 -356 0
-56 27 -36 357 0
-56 27 -36 -357 0
-73 6 66 358 0
-73 6 66 -358 0
-5 -74 -28 359 0
-5 -74 -28 -359 0
-27 -60 -19 360 0
-27 -60 -19 -360 0
57 15 -29 361 0
57 15 -29 -361 0
-33 -4 7 362 0
-33 -4 7 -362 0
33 -68 19 363 0
33 -68 19 -363 0
-41 -66 24 364 0
-41 -66 24 -364 0
-43 10 -73 365 0
-43 10 -73 -365 0
-41 -64 74 366 0
-41 -64 74 -366 0
-48 33 25 367 0
-48 33 25 -367 0
67 58 -14 368 0
67 58 -14 -368 0
-35 -46 -66 369 0
-35 -46 -66 -369 0
-71 -6 -58 370 0
-71 -6 -58 -370 0
-52 31 -55 371 0
-52 31 -55 -371 0
72 -73 12 372 0
72 -73 12 -372 0
-42 -44 19 373 0
-42 -44 19 -373 0
-54 -14 69 374 0
-54 -14 69 -374 0
-18 -68 38 375 0
-18 -68 38 -375 0
-65 37 59 376 0
-65 37 59 -376 0
23 9 -6 377 0
23 9 -6 -377 0
-71 25 14 378 0
-71 25 14 -378 0
-29 17 -30 379 0
-29 17 -30 -379 0
15 -5 -24 380 0
15 -5 -24 -380 0
-4 -27 -35 381 0
-4 -27 -35 -381 0
71 47 48 382 0
71 47 48 -382 0
-25 -72 -54 383 0
-25 -72 -54 -383 0
-74 75 29 384 0
-74 75 29 -384 0
12 16 39 385 0
12 16 39 -385 0
29 -32 49 386 0
29 -32 49 -386 0
71 -43 63 387 0
71 -43 63 -387 0
50 41 -71 388 0
50 41 -71 -388 0
-11 12 -50 389 0
-11 12 -50 -389 0
54 -19 2 390 0
54 -19 2 -390 0
31 -73 39 391 0
31 -73 39 -391 0
20 69 -2 392 0
20 69 -2 -392 0
24 68 11 393 0
24 68 11 -393 0
-71 -15 -34 394 0
-71 -15 -34 -394 0
32 -33 61 395 0
32 -33 61 -395 0
39 6 27 396 0
39 6 27 -396 0
-37 30 19 397 0
-37 30 19 -397 0
9 61 30 398 0
9 61 30 -398 0
43 -1 49 399 0
43 -1 49 -399 0
43 3 61 400 0
43 3 61 -400 0
401 402 403 404 0
401 402 403 -404 0
401 402 -403 404 0
401 402 -403 -404 0
401 -402 403 404 0
401 -402 403 -404 0
401 -402 -403 404 0
401 -402 -403 -404 0
-401 402 403 404 0
-401 402 403 -404 0
-401 402 -403 404 0
-401 402 -403 -404 0
-401 -402 403 404 0
-401 -402 403 -404 0
-401 -402 -403 404 0
-401 -402 -403 -404 0
405 406 407 408 0
405 406 407 -408 0
405 406 -407 408 0
405 406 -407 -408 0
405 -406 407 408 0
405 -406 407 -408 0
405 -406 -407 408 0
405 -406 -407 -408 0
-405 406 407 408 0
-405 406 407 -408 0
-405 406 -407 408 0
-405 406 -407 -408 0
-405 -406 407 408 0
-405 -406 407 -408 0
-405 -406 -407 408 0
-405 -406 -407 -408 0
409 410 411 412 0
409 410 411 -412 0
409 410 -411 412 0
409 410 -411 -412 0
409 -410 411 412 0
409 -410 411 -412 0
409 -410 -411 412 0
409 -410 -411 -412 0
-409 410 411 412 0
-409 410 411 -412 0
-409 410 -411 412 0
-409 410 -411 -412 0
-409 -410 411 412 0
-409 -410 411 -412 0
-409 -410 -411 412 0
-409 -410 -411 -412 0
